(set-logic HORN)


(declare-fun |inv| ( Int Int Int ) Bool)
(declare-fun |fail| ( ) Bool)

(assert
  (forall ( (A Int) (B Int) (C Int) ) 
    (=>
      (and
        (and (= C 0) (>= B 0) (= A 0))
      )
      (inv A B C)
    )
  )
)
(assert
  (forall ( (A Int) (B Int) (C Int) (D Int) (E Int) ) 
    (=>
      (and
        (inv A D B)
        (let ((a!1 (and (not (<= (* 777 D) (+ (- 3885) A))) (>= A (* 777 D)))))
  (and (= E (ite a!1 (+ 1 B) B)) (= C (+ 1 A))))
      )
      (inv C D E)
    )
  )
)
(assert
  (forall ( (A Int) (B Int) (C Int) ) 
    (=>
      (and
        (inv A B C)
        (and (>= A (+ 7770 (* 777 B))) (not (= C 3885)))
      )
      fail
    )
  )
)
(assert
  (forall ( (CHC_COMP_UNUSED Bool) ) 
    (=>
      (and
        fail
        true
      )
      false
    )
  )
)

(check-sat)
(exit)
